p cnf 5000 20
1911 3647 -4557 0
727 -2337 -2732 0
1393 1740 -4968 0
1669 2133 2778 0
2815 3023 3869 0
830 986 -2022 0
1238 3913 4702 0
-1680 -3309 4364 0
264 -557 2985 0
-994 2299 -4118 0
1339 -4362 -4614 0
873 -909 2797 0
470 -1514 3187 0
-2172 -3328 3814 0
-1446 -4565 4741 0
3845 -3916 4815 0
740 1927 -3780 0
2975 3163 4879 0
1068 1747 -2872 0
10 -1191 -4890 0
